(declare-const a Real)
(declare-const b Real)
(declare-const c Real)
(assert (= (* a b c) 1))
(assert (> a 0))
(assert (> b 0))
(assert (> c 0))
(assert (not (<= (+ (* -337881 (pow b 4)) (* -260697 (pow a 4)) (* -663552 (pow a (pow 3 -1)) (pow b (/ 11 3))) (* -331776 (pow a (/ 10 3)) (pow b (/ 2 3))) (* 335964 b (pow a 3)) (* 1153884 a (pow b 3)) (* (/ 52029 8) (pow (+ a b) 3) (pow (+ (* 2 (pow a 2)) (* 2 (pow b 2))) (/ 1 2)))) 0)))
(check-sat)
(get-model)
(exit)